50
2372

807 944
949 487
811 941
148 655
19 708
759 661
175 146
839 742
554 884
188 44
554 906
250 409
293 14
573 18
585 237
67 788
440 630
679 321
200 250
677 160
680 767
501 565
222 378
291 117
922 792
216 719
522 529
320 505
995 857
140 206
940 872
643 105
992 853
536 403
892 853
323 779
396 654
491 715
722 441
529 20
717 879
380 288
654 302
797 603
688 227
430 671
494 526
430 805
507 986
164 664
